
length = 10;
width = 6;

ntypes = 4;
number = [2,1,1,2];
config = [{2},{4},{5},{7}];

nshapes = 7;
shape = [{1},{2}, {3},{4},{5},{6},{7}];

nroff = 7;
rectoff = [| 0,0,2,5 | 0,0,5,2

           | 0,0,3,4 | 0,0,4,3

           | 0,0,1,3 | 0,0,3,1
 
           | 0,0,1,1
 |]; 


mist =   array1d(LENGTH,[0,0,0,2,2,2,0,0,1,1]);
arrow  = array1d(WIDTH,[1,4,10,7,3,0]);
price = [ 5, 6, 7, 2 ];
budget = 40;
stage = C;
